n = 40;
m = 64;
w = [5,4,8,7,4,3,7,4,7,5,7,3,2,10,4,5,4,9,7,7,3,2,1,9,6,7,10,2,5,3,10,9,8,5,3,4,1,7,9,5,10,7,1,7,6,2,6,7,5,10,3,7,6,9,7,9,8,9,8,10,4,4,2,1];
edges = array2d(1..m, 1..2, [1,2,1,36,2,30,2,33,3,19,3,24,3,40,4,18,5,34,5,39,6,16,6,32,6,39,7,19,8,15,8,16,8,22,8,23,8,25,8,26,8,38,9,14,9,15,9,19,9,30,9,40,10,26,10,32,11,14,11,17,12,16,12,18,12,19,12,20,13,17,13,21,14,24,15,32,16,28,16,39,17,33,17,39,18,26,18,27,19,26,19,31,21,27,22,26,23,24,23,36,24,27,24,29,24,34,24,35,24,37,24,40,25,35,26,35,26,39,27,34,28,30,30,34,34,38,34,39]);
